c ---- [ banner ] ------------------------------------------------------------
c
c Kissat SAT Solver
c 
c Copyright (c) 2021-2023 Armin Biere University of Freiburg
c Copyright (c) 2019-2021 Armin Biere Johannes Kepler University Linz
c 
c Version 3.1.1 unknown
c gcc (Ubuntu 9.4.0-1ubuntu1~20.04.2) 9.4.0 -W -Wall -O3 -DNDEBUG
c Mon Feb 26 18:18:52 CET 2024 Linux OptiPlex-7080 5.15.0-88-generic x86_64
c
c ---- [ parsing ] -----------------------------------------------------------
c
c opened and reading DIMACS file:
c
c   /home/oliveras/SAT-comp-2023//48539e7e4baae6db72cda7e8a9cecfa0-oisc-subrv-sll-nested-15.cnf
c
c parsed 'p cnf 13053309 45250851' header
c closing input after reading 1092526861 bytes (1 GB)
c finished parsing after 11.50 seconds
c
c ---- [ options ] -----------------------------------------------------------
c
c --seed=1                         (different from default '0')
c
c ---- [ solving ] -----------------------------------------------------------
c
c  seconds   switched conflicts        irredundant    variables
c           MB reductions redundant             trail        remaining
c            level restarts       binary           glue
c
c * 11.50 2922 0 0 0  0   0   0 13908088 31342760 0% 0 13053306 100%
c { 11.50 2922 0 0 0  0   0   0 13908088 31342760 0% 0 13053306 100%
c i 24.78 3182 26 0 0 14 132 125 13908094 31342760 48% 3 13053305 100%
c i 36.11 3190 255 0 0 37 551 478 13908155 31342760 30% 3 13053192 100%
c - 159.11 3206 244 0 1 144 1000 826 13907924 31342760 47% 3 13053192 100%
c } 159.11 3206 244 1 1 144 1000 826 13907924 31342760 47% 3 13053192 100%
c [ 159.11 3206 0 1 1 144 1000 826 13907924 31342760 0% 0 13053192 100%
c B 159.82 3261 550 1 1 144 1002 828 13907924 31342760 95% 3 13053192 100%
c - 181.94 3274 377 1 2 144 2000 1608 13907937 31342760 75% 5 13053192 100%
c W 186.01 3342 378 1 2 144 2005 1611 13907937 31342441 76% 5 13053192 100%
c - 221.38 3342 396 1 3 146 3414 2120 13907937 31342441 78% 20 13053192 100%
c I 237.70 3342 324 1 3 146 4265 2944 13907937 31342441 76% 18 13053192 100%
c i 238.00 3342 323 1 3 146 4267 2944 13907938 31342441 76% 18 13053191 100%
c i 238.08 3342 323 1 3 146 4271 2945 13907938 31342441 76% 18 13053190 100%
c i 238.09 3342 323 1 3 146 4272 2945 13907938 31342441 76% 18 13053188 100%
c - 297.18 3342 301 1 4 146 5147 2592 13907932 31342441 71% 16 13053188 100%
c d 336.50 3345 342 1 4 147 5861 3239 13908167 31342199 73% 21 13053187 100%
c b 341.54 3354 342 1 4 147 5861 3239 13908167 31342199 73% 21 13049257 100%
c u 349.48 3354 342 1 4 147 5861 2526 13908756 31342199 73% 21 12924708 99%
c v 357.63 3354 342 1 4 147 5861 2424 13908761 31342199 73% 21 12888497 99%
c
c  seconds      switched conflicts           irredundant      variables
c            MB  reductions   redundant                trail         remaining
c              level restarts           binary             glue
c
c w 378.99 3508 342 1 4 147 5861 2424 14555939 30081958 73% 21 12888497 99%
c = 397.13 3563 342 1 4 147 5861 2424 14867351 30048734 73% 21 12732788 98%
c d 399.56 3576 342 1 4 147 5861 2422 13766397 30048733 73% 21 12482513 96%
c b 408.03 3591 342 1 4 147 5861 2422 13766397 30048733 73% 21 12482486 96%
c i 408.03 3591 342 1 4 147 5861 2422 13766397 30048733 73% 21 12482486 96%
c - 480.02 3593 331 1 5 148 7148 2345 13241842 30048733 72% 42 12482486 96%
c ] 493.34 3593 329 2 5 148 7418 2599 13241853 30048733 72% 46 12482486 96%
c { 493.34 3593 244 2 5 148 7418 2599 13241853 30048733 47% 3 12482486 96%
c i 494.02 3593 244 2 5 149 7421 2601 13241853 30048733 47% 3 12482485 96%
c i 494.20 3593 243 2 5 149 7422 2601 13241853 30048733 47% 3 12482484 96%
c i 494.42 3593 243 2 5 149 7423 2601 13241853 30048733 47% 3 12482483 96%
c i 494.59 3593 243 2 5 150 7424 2601 13241853 30048733 47% 3 12482482 96%
c i 494.71 3593 243 2 5 150 7425 2601 13241853 30048733 47% 3 12482481 96%
c i 494.85 3593 242 2 5 151 7426 2601 13241853 30048733 47% 3 12482480 96%
c i 494.86 3593 242 2 5 151 7427 2601 13241853 30048733 47% 3 12482479 96%
c i 494.99 3593 242 2 5 152 7428 2601 13241853 30048733 47% 3 12482478 96%
c i 559.30 3593 215 2 5 243 7888 3022 13241870 30048733 52% 3 12482402 96%
c i 567.31 3593 211 2 5 251 7928 3058 13241873 30048733 52% 3 12482401 96%
c i 572.94 3593 206 2 5 252 7966 3092 13241876 30048733 52% 3 12482400 96%
c i 574.64 3593 205 2 5 252 7999 3117 13241881 30048733 52% 3 12482399 96%
c
c  seconds      switched conflicts           irredundant     variables
c            MB  reductions   redundant                trail        remaining
c              level restarts           binary            glue
c
c i 575.33 3593 205 2 5 252 8004 3119 13241883 30048733 52% 3 12482398 96%
c } 579.09 3593 266 3 5 252 8419 3533 13241884 30048733 60% 3 12482398 96%
c [ 579.09 3593 329 3 5 252 8419 3533 13241884 30048733 72% 46 12482398 96%
c B 579.29 3593 329 3 5 252 8419 3533 13241884 30048733 72% 46 12482398 96%
c - 617.14 3593 349 3 6 252 9384 3437 13230573 30048733 73% 42 12482398 96%
c ] 717.67 3593 335 4 6 253 10587 4542 13230652 30048733 73% 38 12482398 96%
c { 717.67 3593 266 4 6 253 10587 4542 13230652 30048733 60% 3 12482398 96%
c d 1057.83 3595 260 4 6 511 11701 5638 13295797 29930240 62% 6 12482340 96%
c d 1059.57 3595 260 4 6 511 11701 5638 13221251 29930240 62% 6 12445067 95%
c b 1069.99 3595 260 4 6 511 11701 5638 13221251 29930240 62% 6 12406136 95%
c u 1085.95 3595 260 4 6 511 11701 5617 13221269 29930240 62% 6 12406136 95%
c v 1103.57 3595 260 4 6 511 11701 5617 13221269 29930240 62% 6 12406136 95%
c w 1130.73 3599 260 4 6 511 11701 5618 13397364 29581029 62% 6 12406136 95%
c = 1164.93 3599 260 4 6 511 11701 5618 13408520 29575627 62% 6 12395983 95%
c d 1167.23 3599 260 4 6 511 11701 5618 13291187 29471118 62% 6 12321314 94%
c d 1168.93 3599 260 4 6 511 11701 5618 13291089 29471118 62% 6 12321265 94%
c t 1174.60 3603 260 4 6 511 11701 5618 13291087 29471118 62% 6 12321265 94%
c b 1184.07 3603 260 4 6 511 11701 5618 13291087 29471118 62% 6 12320002 94%
c - 1210.19 3603 255 4 7 511 11834 4576 13156025 29471118 62% 6 12320002 94%
c } 1500.07 3604 424 5 7 658 12940 5321 13156060 29471118 65% 22 12320002 94%
c
c   seconds      switched  conflicts           irredundant      variables
c             MB  reductions    redundant                trail         remaining
c               level restarts            binary             glue
c
c [ 1500.07 3604 335 5 7 658 12940 5321 13156060 29471118 73% 38 12320002 94%
c i 1518.37 3604 447 5 7 658 13500 5629 13156060 29471118 74% 76 12319990 94%
c W 1539.41 3612 532 5 7 658 13949 6041 13155925 29425679 74% 113 12319942 94%
c - 1588.18 3612 514 5 8 659 14479 4938 13155929 29425679 74% 108 12319942 94%
c - 1779.54 3614 443 5 9 660 17307 5032 13156000 29425679 74% 86 12319942 94%
c - 2007.45 3614 387 5 10 663 20308 5448 13156021 29425679 74% 71 12319942 94%
c O 2118.08 3614 368 5 10 663 21477 6615 13156021 29425679 74% 66 12319942 94%
c - 2243.02 3614 346 5 11 664 23471 5967 13156080 29425679 74% 60 12319942 94%
c d 2304.99 3614 348 5 11 664 23814 6306 13203189 29378268 74% 59 12319791 94%
c d 2306.68 3614 348 5 11 664 23814 6306 13196815 29378268 74% 59 12316604 94%
c b 2317.74 3614 348 5 11 664 23814 6306 13196815 29378268 74% 59 12315447 94%
c u 2335.46 3614 348 5 11 664 23814 6287 13196834 29378268 74% 59 12315447 94%
c v 2354.23 3614 348 5 11 664 23814 6280 13196841 29378268 74% 59 12315447 94%
c w 2383.19 3614 348 5 11 664 23814 6280 13239432 29294911 74% 59 12315447 94%
c = 2422.92 3617 348 5 11 664 23814 6280 13254859 29280098 74% 59 12304612 94%
c d 2425.15 3617 348 5 11 664 23814 6279 13265615 29207108 74% 59 12302449 94%
c d 2426.84 3617 348 5 11 664 23814 6279 13265585 29207108 74% 59 12302434 94%
c t 2434.35 3617 348 5 11 664 23814 6279 13265585 29207108 74% 59 12302420 94%
c b 2445.64 3617 348 5 11 664 23814 6279 13265585 29207108 74% 59 12075274 93%
c - 2644.56 3617 321 5 12 666 26787 6496 12491324 29207108 74% 53 12075274 93%
c
c   seconds      switched   conflicts           irredundant      variables
c             MB   reductions    redundant                trail         remaining
c               level  restarts            binary             glue
c
c 2 2751.39 3617 299 5 12 667 29304 8975 12474610 29207108 74% 50 12075274 93%
c s 2759.20 3617 299 5 12 667 29304 8975 12770730 28184012 74% 50 12075274 93%
c e 2950.75 3929 299 5 12 667 29304 8975 2328079 24044054 74% 50 3546627 27%
c 2 2950.90 3731 299 5 12 667 29304 8975 2324584 24044054 74% 50 3546627 27%
c s 2966.37 3731 299 5 12 667 29304 8975 2374992 23822418 74% 50 3546627 27%
c e 2973.39 3905 299 5 12 667 29304 8975 2351366 23794276 74% 50 3519904 27%
c ^ 2973.40 3755 299 5 12 667 29304 8975 2351366 23794276 74% 50 3519904 27%
c - 3012.92 3077 298 5 13 668 30252 2292 2364446 23781196 74% 49 3519904 27%
c B 3030.54 3079 293 5 13 669 31239 3180 2364454 23781161 74% 48 3519904 27%
c ] 3099.51 3079 282 6 13 670 32900 4758 2364461 23781142 74% 46 3519904 27%
c { 3099.51 3079 424 6 13 670 32900 4758 2364461 23781142 65% 22 3519904 27%
c i 3099.88 3081 425 6 13 675 32921 4761 2364469 23781141 65% 22 3494180 27%
c i 3109.40 3083 386 6 13 676 33801 5444 2364523 23781026 64% 20 3484605 27%
c - 3111.80 3083 384 6 14 683 33857 3407 2307024 23781015 63% 19 3484605 27%
c i 3124.79 3083 356 6 14 684 34884 4152 2307036 23780890 64% 18 3467889 27%
c i 3124.80 3083 356 6 14 684 34885 4152 2307036 23780890 64% 18 3455413 26%
c i 3124.98 3083 355 6 14 684 34901 4156 2307045 23780889 64% 18 3455412 26%
c i 3130.08 3083 323 6 14 687 35618 4848 2307054 23780886 63% 17 3434436 26%
c i 3130.28 3083 323 6 14 687 35635 4848 2307065 23780886 63% 17 3434434 26%
c i 3130.35 3083 323 6 14 687 35639 4850 2307065 23780886 63% 17 3429383 26%
c
c   seconds      switched   conflicts          irredundant      variables
c             MB   reductions    redundant               trail        remaining
c               level  restarts           binary             glue
c
c i 3139.89 3083 285 6 14 688 36832 6002 2307085 23780886 62% 15 3429382 26%
c i 3139.99 3083 285 6 14 688 36836 6002 2307088 23780886 62% 15 3429376 26%
c } 3146.36 3085 280 7 14 689 36970 6135 2307089 23780886 62% 15 3429376 26%
c [ 3146.36 3085 282 7 14 689 36970 6135 2307089 23780886 74% 46 3429376 26%
c - 3162.21 3085 278 7 15 689 37598 4896 2183567 23780885 73% 45 3429376 26%
c ] 3204.76 3085 272 8 15 690 38594 5874 2183568 23780882 73% 44 3429376 26%
c { 3204.76 3085 280 8 15 690 38594 5874 2183568 23780882 62% 15 3429376 26%
c i 3217.21 3085 276 8 15 690 38852 6120 2183576 23780882 61% 15 3429371 26%
c i 3240.33 3085 300 8 15 692 39757 6988 2183586 23780882 61% 14 3429369 26%
c i 3261.95 3087 324 8 15 693 40613 7787 2183600 23780882 62% 14 3428904 26%
c i 3265.89 3087 329 8 15 693 40639 7807 2183601 23780882 62% 14 3428900 26%
c i 3297.90 3087 355 8 15 728 41306 8447 2183609 23780882 62% 13 3428816 26%
c i 3311.97 3087 387 8 15 728 41372 8480 2183611 23780882 62% 13 3428813 26%
c - 3317.43 3087 385 8 16 735 41471 5999 2152460 23780882 62% 13 3428812 26%
c i 3403.25 3089 375 8 16 883 42181 6689 2152473 23780882 62% 14 3428811 26%
c d 3476.00 3089 367 8 16 1008 42609 7098 2279760 22044505 62% 14 3428804 26%
c d 3477.23 3091 367 8 16 1008 42609 7096 2171714 21927269 62% 14 3374781 26%
c b 3478.98 3108 367 8 16 1008 42609 7096 2171714 21927269 62% 14 3347957 26%
c u 3498.11 3118 367 8 16 1008 42609 7094 2171715 21927269 62% 14 3347957 26%
c v 3516.94 3118 367 8 16 1008 42609 7094 2171715 21927269 62% 14 3347957 26%
c
c   seconds      switched    conflicts          irredundant      variables
c             MB   reductions     redundant               trail        remaining
c               level   restarts           binary             glue
c
c w 3547.60 3176 367 8 16 1008 42609 7096 2237826 21692229 62% 14 2878817 22%
c = 3580.51 3145 367 8 16 1008 42609 7096 2663418 16471245 62% 14 2698806 21%
c d 3582.31 3147 367 8 16 1008 42609 7090 2446261 16247818 62% 14 2698738 21%
c d 3583.33 3147 367 8 16 1008 42609 7090 2410813 16214563 62% 14 2681014 21%
c t 3586.77 3160 367 8 16 1008 42609 7090 2410411 16214563 62% 14 2680980 21%
c b 3587.35 3164 367 8 16 1008 42609 7090 2410411 16214563 62% 14 2679683 21%
c i 3587.35 3164 367 8 16 1008 42609 7090 2410411 16214563 62% 14 2679683 21%
c caught signal 2 (SIGINT)
c
c ---- [ profiling ] ---------------------------------------------------------
c
c        2895.02   80.43 %  search
c        1679.65   46.66 %  stable
c        1215.37   33.76 %  focused
c         693.08   19.25 %  simplify
c         459.01   12.75 %  probe
c         232.25    6.45 %  vivify
c         224.25    6.23 %  eliminate
c         124.98    3.47 %  sweep
c          50.67    1.41 %  backbone
c          32.75    0.91 %  substitute
c          23.71    0.66 %  subsume
c          18.36    0.51 %  transitive
c          17.61    0.49 %  reduce
c          11.50    0.32 %  parse
c           9.82    0.27 %  walking
c           0.02    0.00 %  warmup
c =============================================
c        3599.60  100.00 %  total
c
c ---- [ statistics ] --------------------------------------------------------
c
c chronological:                         8293               19 %  conflicts
c conflicts:                            42823               11.90 per second
c decisions:                          1587120               37.06 per conflict
c eliminated:                         8555360               66 %  variables
c jumped_reasons:                  3128348254               18 %  propagations
c propagations:                   17807688211          4947125    per second
c queue_decisions:                     671713               42 %  decision
c random_decisions:                    210849               13 %  decision
c random_sequences:                        18             2379    interval
c reductions:                              16             2676    interval
c rephased:                                 7             6118    interval
c restarts:                              1028               41.66 interval
c score_decisions:                     704558               44 %  decision
c strengthened:                       2089109                0 %  checks
c substituted:                         788223                6 %  variables
c subsumed:                            172028                0 %  checks
c switched:                                 8             5353    interval
c vivified:                               967               24 %  checks
c vivify_checks:                         3952              988    per vivify
c vivify_units:                            30                0 %  variables
c walk_improved:                            2              100 %  walks
c walks:                                    2            21412    interval
c
c ---- [ resources ] ---------------------------------------------------------
c
c maximum-resident-set-size:       6259503104 bytes       5970 MB
c process-time:                             1h            3599.60 seconds
c raising signal 2 (SIGINT)
